c --- [ banner ] -------------------------------------------------------------
c 
c CaDiCaL Radically Simplified CDCL SAT Solver
c Copyright (c) 2016-2021 A. Biere, M. Fleury, N. Froleyks
c 
c Version 1.5.2 9c38a080b32c28d805e8e6ca21849856b0cda605
c g++ (Ubuntu 7.5.0-3ubuntu1~18.04) 7.5.0 -Wall -Wextra -O3 -DNDEBUG
c Wed Feb 16 23:15:36 EST 2022 Linux fac-vanhoeve01 5.4.0-99-generic x86_64
c 
c --- [ limit ] --------------------------------------------------------------
c 
c setting time limit to 600 seconds real time (due to '-t 600')
c setting conflict limit to 1000000000 conflicts (due to '1000000000')
c 
c --- [ parsing input ] ------------------------------------------------------
c 
c reading DIMACS file from 'ddfwcnfs/wap02a.col_40.cnf'
c opening file to read 'ddfwcnfs/wap02a.col_40.cnf'
c found 'p cnf 98560 4253384' header
c parsed 4253384 clauses in 2.41 seconds process time
c closing file 'ddfwcnfs/wap02a.col_40.cnf'
c after reading 68126656 bytes 65.0 MB
c 
c --- [ options ] ------------------------------------------------------------
c 
c all options are set to their default value
c 
c --- [ solving ] ------------------------------------------------------------
c 
c time measured in process time since initialization
c 
c  seconds   reductions  redundant   irredundant
c          MB    restarts       trail        variables
c           level   conflicts       glue          remaining
c 
c *  2.41 376  0 0   0    0    0  0% 0 4251784 96960 98%
c {  2.44 378  0 0   0    0    0  0% 0 4251784 96960 98%
c -  3.10 378 39 1   0  300  148  4% 36 4251784 96960 98%
c }  3.21 378 40 1   0 1000  634  4% 36 4251784 96960 98%
c [  3.21 378  0 1   0 1000  634  0% 0 4251784 96960 98%
c O  3.21 378 50 1   0 1002  636  4% 28 4251784 96960 98%
c -  5.02 476 48 2   0 1883 1096  4% 35 4251784 96960 98%
c ]  5.10 476 45 2   1 3003 1817  4% 37 4251784 96960 98%
c {  5.10 476 40 2   1 3003 1817  4% 36 4251784 96960 98%
c F  5.10 476 40 2   1 3004 1818  4% 36 4251784 96960 98%
c -  6.38 476 53 3   1 4248 1876  5% 31 4251784 96960 98%
c #  9.41 472 50 3   1 6007 3241  5% 30 4251784 96960 98%
c }  9.49 472 49 3   3 7005 3966  6% 30 4251784 96960 98%
c [  9.49 472 45 3   3 7005 3966  4% 37 4251784 96960 98%
c - 10.72 472 44 4   4 7404 2930  4% 36 4251784 96960 98%
c I 10.92 472 42 4   5 10008 4701  4% 36 4251784 96960 98%
c s 12.34 488 822 4   6 10911 5337  6% 38 4251784 96960 98%
c e 20.85 488 822 4   6 10911 2842  6% 38 3774349 90415 92%
c s 22.36 505 822 4   6 10911 2831  6% 38 3774349 90415 92%
c ^ 23.04 505 822 4   6 10911 2831  6% 38 3774349 90415 92%
c 
c  seconds     reductions   redundant    irredundant
c          MB      restarts        trail         variables
c            level     conflicts       glue           remaining
c 
c - 24.47 515 1377 5   7 11346 1638  7% 39 3774349 90415 92%
c ] 27.91 544 8568 5   8 15006 4380 22% 47 3774349 90415 92%
c { 27.91 544 49 5   8 15006 4380  6% 30 3774349 90415 92%
c B 27.93 544 50 5   8 15010 4384  6% 30 3774349 90415 92%
c - 29.18 545 67 6 260 15985 3910  6% 31 3774349 90415 92%
c W 30.84 545 75 6 1307 21011 7719  6% 34 3774349 90415 92%
c - 32.08 545 81 7 1349 21397 5222  6% 35 3774349 90415 92%
c - 33.71 545 71 8 1361 27582 6286  6% 35 3774349 90415 92%
c F 33.75 545 71 8 1361 28013 6600  6% 35 3774349 90415 92%
c } 37.00 545 65 8 1361 31007 8628  6% 34 3774349 90415 92%
c [ 37.00 545 8568 8 1361 31007 8628 22% 47 3774349 90415 92%
c s 37.35 545 7448 8 1361 32446 9523 20% 46 3774349 90415 92%
c w 39.88 545 7448 8 1361 32446 9513 20% 46 3774349 90415 92%
c s 44.15 545 7448 8 1361 32446 9267 20% 46 3774349 90415 92%
c ^ 44.79 545 7448 8 1361 32446 9267 20% 46 3774349 90415 92%
c - 46.17 545 6238 9 1363 34541 7738 18% 45 3774349 90415 92%
c B 46.28 545 5590 9 1364 36014 8583 16% 44 3774349 90415 92%
c - 48.59 547 8294 10 1368 42271 8203 26% 64 3774349 90415 92%
c W 50.22 547 7286 10 1368 45016 10161 25% 68 3774349 90415 92%
c - 54.97 547 5777 11 1369 50774 8599 21% 68 3774349 90415 92%
c 
c  seconds     reductions      redundant    irredundant
c          MB       restarts          trail         variables
c            level       conflicts        glue           remaining
c 
c O 55.61 547 6109 11 1370 55021 11951 23% 72 3774349 90415 92%
c - 57.08 547 5190 12 1374 60050 9029 20% 67 3774349 90415 92%
c ] 57.29 547 4755 12 1376 63008 10900 19% 65 3774349 90415 92%
c { 57.29 547 65 12 1376 63008 10900  6% 34 3774349 90415 92%
c s 57.59 547 67 12 1376 64748 12075  6% 33 3774349 90415 92%
c w 60.11 547 67 12 1376 64748 12074  6% 33 3774349 90415 92%
c s 64.42 547 67 12 1376 64748 12052  6% 33 3774349 90415 92%
c ^ 65.08 547 67 12 1376 64748 12052  6% 33 3774349 90415 92%
c B 65.19 547 65 12 1376 66022 12842  6% 33 3774349 90415 92%
c - 66.94 545 64 13 1511 70100 8212  6% 33 3774349 90415 92%
c W 72.36 545 61 13 1668 78028 12635  6% 34 3774349 90415 92%
c - 73.80 545 61 14 1722 80922 8438  6% 34 3774349 90415 92%
c # 74.89 545 60 14 2068 91030 15455  6% 34 3774349 90415 92%
c - 76.20 546 60 15 2078 92517 10314  6% 34 3774349 90415 92%
c - 78.50 546 54 16 2100 104885 10209  6% 34 3774349 90415 92%
c B 81.39 546 54 16 2100 105034 10300  6% 34 3774349 90415 92%
c s 82.12 546 58 16 2766 107819 11400  7% 35 3774349 90415 92%
c w 84.65 546 58 16 2766 107819 11391  7% 35 3774349 90415 92%
c s 89.01 546 58 16 2766 107819 11181  7% 35 3774349 90415 92%
c ^ 89.66 546 58 16 2766 107819 11181  7% 35 3774349 90415 92%
c 
c  seconds   reductions       redundant    irredundant
c          MB     restarts           trail         variables
c           level      conflicts         glue           remaining
c 
c - 92.09 547 78 17 5175 118027 12028  7% 39 3774349 90415 92%
c W 94.63 547 76 17 5175 120037 13291  7% 39 3774349 90415 92%
c } 95.18 547 72 17 5175 127010 18092  7% 39 3774349 90415 92%
c [ 95.18 547 4755 17 5175 127010 18092 19% 65 3774349 90415 92%
c - 96.80 546 4198 18 5177 131941 12565 18% 63 3774349 90415 92%
c B 97.16 546 3781 18 5180 136039 14885 17% 60 3774349 90415 92%
c - 103.43 550 6575 19 5183 146630 14674 25% 78 3774349 90415 92%
c W 107.00 550 6698 19 5184 153043 19939 28% 86 3774349 90415 92%
c s 108.16 550 6223 19 5184 161655 26231 29% 83 3774349 90415 92%
c w 110.77 550 6223 19 5184 161655 26230 29% 83 3774349 90415 92%
c s 115.24 550 6223 19 5184 161655 26227 29% 83 3774349 90415 92%
c ^ 115.91 550 6223 19 5184 161655 26227 29% 83 3774349 90415 92%
c - 117.22 551 6175 20 5184 162091 16108 29% 83 3774349 90415 92%
c I 118.26 551 5383 20 5187 171044 22935 26% 81 3774349 90415 92%
c - 120.44 550 5318 21 5191 178325 16941 26% 85 3774349 90415 92%
c B 125.93 550 5054 21 5198 190045 26651 26% 89 3774349 90415 92%
c - 127.87 552 4681 22 5199 195333 18830 25% 87 3774349 90415 92%
c W 132.29 552 3813 22 5206 210046 29362 22% 80 3774349 90415 92%
c - 133.74 548 3657 23 5206 213115 17814 22% 79 3774349 90415 92%
c s 138.67 548 3296 23 5214 226258 27074 20% 74 3774349 90415 92%
c 
c  seconds      reductions       redundant    irredundant
c           MB       restarts           trail         variables
c             level       conflicts         glue           remaining
c 
c w 141.26 548 3296 23 5214 226258 27074 20% 74 3774349 90415 92%
c s 145.92 548 3296 23 5214 226258 26753 20% 74 3774349 90415 92%
c O 147.38 548 3111 23 5214 231048 30117 20% 74 3774349 90415 92%
c - 148.79 549 3087 24 5214 231668 18800 20% 74 3774349 90415 92%
c - 152.31 549 2437 25 5216 250995 19084 18% 71 3774349 90415 92%
c B 152.59 549 2378 25 5216 253052 20603 17% 71 3774349 90415 92%
c ] 153.15 549 3019 25 5216 255012 22280 18% 75 3774349 90415 92%
c { 153.15 549 72 25 5216 255012 22280  7% 39 3774349 90415 92%
c - 155.66 549 65 26 5237 271097 19862  7% 38 3774349 90415 92%
c F 159.97 549 63 26 5237 276057 23245  7% 38 3774349 90415 92%
c - 163.27 548 62 27 5237 291972 22776  6% 36 3774349 90415 92%
c B 164.33 548 61 27 5237 300059 29704  6% 35 3774349 90415 92%
c - 167.38 549 61 28 5508 313618 24429  6% 36 3774349 90415 92%
c W 173.43 549 60 28 5852 325060 33527  6% 36 3774349 90415 92%
c - 180.55 549 60 29 6153 336036 23282  6% 36 3774349 90415 92%
c # 182.12 549 57 29 6280 351062 31588  6% 36 3774349 90415 92%
c - 184.47 548 55 30 6282 359227 20575  6% 36 3774349 90415 92%
c B 186.72 548 52 30 6365 378065 33000  6% 36 3774349 90415 92%
c - 188.85 548 52 31 6750 383192 20773  6% 36 3774349 90415 92%
c W 201.95 548 60 31 7204 406067 33996  6% 37 3774349 90415 92%
c 
c  seconds    reductions       redundant    irredundant
c           MB     restarts           trail         variables
c            level      conflicts         glue           remaining
c 
c - 203.64 548 61 32 7217 407929 19604  6% 37 3774349 90415 92%
c - 208.27 548 68 33 7475 433440 20166  6% 37 3774349 90415 92%
c F 208.48 548 68 33 7479 435068 21017  6% 37 3774349 90415 92%
c - 216.67 548 62 34 7590 459729 21158  7% 38 3774349 90415 92%
c B 217.31 548 61 34 7616 465071 24346  7% 38 3774349 90415 92%
c - 221.73 548 64 35 13121 486785 16254  7% 43 3774349 90415 92%
c W 229.64 548 64 35 15453 496072 19049  7% 44 3774349 90415 92%
c } 231.67 548 83 35 15472 511012 30474  7% 44 3774349 90415 92%
c [ 231.67 548 3019 35 15472 511012 30474 18% 75 3774349 90415 92%
c - 234.18 550 3196 36 15472 514618 21384 19% 77 3774349 90415 92%
c W 247.78 550 3631 36 15472 528077 31004 21% 80 3774349 90415 92%
c - 251.78 555 3075 37 15475 543221 27075 19% 80 3774349 90415 92%
c I 254.97 555 2536 37 15486 561078 40318 17% 79 3774349 90415 92%
c - 259.09 559 5994 38 15488 572596 29461 21% 99 3774349 90415 92%
c B 263.32 559 5683 38 15501 595087 46622 21% 99 3774349 90415 92%
c - 270.41 556 5751 39 15502 602745 30607 22% 97 3774349 90415 92%
c W 284.31 556 4389 39 15509 630088 53164 21% 93 3774349 90415 92%
c - 286.70 557 4498 40 15510 633667 33704 22% 93 3774349 90415 92%
c s 287.13 557 4498 40 15510 633667 33592 22% 93 3774349 90415 92%
c w 290.75 557 4498 40 15510 633667 33579 22% 93 3774349 90415 92%
c 
c  seconds      reductions        redundant    irredundant
c           MB        restarts           trail         variables
c             level        conflicts         glue           remaining
c 
c - 297.58 555 4247 41 15525 665363 36262 23% 86 3774349 90415 92%
c O 297.65 555 4216 41 15525 666089 36757 23% 86 3774349 90415 92%
c - 306.37 550 3055 42 15534 697831 32563 18% 72 3774349 90415 92%
c B 307.03 550 2898 42 15534 703093 36261 17% 70 3774349 90415 92%
c - 311.97 555 3373 43 15535 731072 31919 24% 69 3774349 90415 92%
c W 322.28 555 3806 43 15536 741095 39154 26% 70 3774349 90415 92%
c - 331.54 560 5753 44 15536 765087 35486 29% 85 3774349 90415 92%
c I 333.78 560 4981 44 15536 780096 46456 26% 90 3774349 90415 92%
c - 337.43 562 8127 45 15536 799874 33002 28% 113 3774349 90415 92%
c B 341.61 562 9211 45 15546 820099 48564 31% 119 3774349 90415 92%
c - 345.78 562 7949 46 15551 835437 36664 29% 115 3774349 90415 92%
c W 361.42 562 6362 46 15565 861100 54215 25% 100 3774349 90415 92%
c - 365.56 557 6008 47 15567 871770 36716 24% 106 3774349 90415 92%
c O 370.18 557 5625 47 15577 903102 60343 24% 98 3774349 90415 92%
c - 372.30 555 5313 48 15581 908877 36907 23% 95 3774349 90415 92%
c B 377.60 555 3686 48 15597 946105 64139 17% 77 3774349 90415 92%
c - 379.63 553 3900 49 15597 946756 37610 18% 81 3774349 90415 92%
c - 405.68 585 3836 50 15599 985410 44711 24% 119 3774349 90415 92%
c W 419.06 585 3686 50 15599 990107 48984 24% 120 3774349 90415 92%
c ] 425.65 585 3630 50 15612 1023014 74683 25% 110 3774349 90415 92%
c 
c  seconds    reductions         redundant    irredundant
c           MB      restarts            trail         variables
c            level        conflicts         glue           remaining
c 
c { 425.65 585 83 50 15612 1023014 74683  7% 44 3774349 90415 92%
c - 427.34 560 83 51 15615 1024836 42905  7% 44 3774349 90415 92%
c # 428.42 560 79 51 15642 1035108 49903  7% 44 3774349 90415 92%
c - 437.43 552 70 52 15668 1065034 39277  6% 43 3774349 90415 92%
c s 437.82 552 70 52 15668 1065034 38834  6% 43 3774349 90415 92%
c w 441.37 552 70 52 15668 1065034 38820  6% 43 3774349 90415 92%
c B 443.88 552 66 52 15724 1081110 49173  6% 42 3774349 90415 92%
c - 448.91 554 115 53 20372 1106005 42364  6% 44 3774349 90415 92%
c W 464.38 554 147 53 23837 1128112 59861  6% 46 3774349 90415 92%
c - 468.83 556 170 54 26505 1147749 45279  6% 47 3774349 90415 92%
c F 476.69 556 195 54 27788 1176114 68271  7% 47 3774349 90415 92%
c - 480.01 555 175 55 27792 1190266 46149  7% 46 3774349 90415 92%
c B 486.00 555 137 55 27792 1225120 75184  7% 44 3774349 90415 92%
c - 488.46 554 134 56 27850 1233557 47391  7% 44 3774349 90415 92%
c W 511.17 554 103 56 27853 1275121 76204  7% 43 3774349 90415 92%
c - 512.96 552 102 57 27853 1277622 42821  7% 43 3774349 90415 92%
c - 520.21 553 81 58 27860 1322459 44969  7% 42 3774349 90415 92%
c # 520.68 553 79 58 27910 1326124 47547  7% 42 3774349 90415 92%
c - 527.11 554 67 59 27913 1368069 49042  7% 41 3774349 90415 92%
c B 528.62 554 65 59 27918 1378125 57593  7% 41 3774349 90415 92%
c 
c  seconds    reductions         redundant    irredundant
c           MB      restarts            trail         variables
c            level        conflicts         glue           remaining
c 
c - 537.74 554 68 60 28625 1414453 48667  7% 41 3774349 90415 92%
c W 554.60 554 64 60 28675 1431126 59218  7% 40 3774349 90415 92%
c - 559.40 552 58 61 28727 1461610 42797  7% 40 3774349 90415 92%
c F 562.40 552 54 61 28817 1485128 57557  7% 40 3774349 90415 92%
c - 570.39 553 54 62 28824 1509539 46215  7% 39 3774349 90415 92%
c B 574.87 553 50 62 28834 1540130 67785  6% 38 3774349 90415 92%
c - 578.23 552 50 63 28994 1558243 45132  7% 38 3774349 90415 92%
c s 578.63 552 50 63 28994 1558243 43525  7% 38 3774349 90415 92%
c } 600.34 552 47 63 29169 1596130 67062  7% 38 3774349 90415 92%
c ? 600.34 552 47 63 29169 1596130 67062  7% 38 3774349 90415 92%
c 
c --- [ result ] -------------------------------------------------------------
c 
c UNKNOWN
c 
c --- [ run-time profiling ] -------------------------------------------------
c 
c process time taken by individual solving procedures
c (percentage relative to process time for solving)
c 
c       460.59   77.03% search
c       169.23   28.30% stable
c       162.16   27.12% unstable
c       137.34   22.97% simplify
c       129.17   21.60% walk
c        34.85    5.83% ternary
c        26.35    4.41% elim
c        19.76    3.30% vivify
c        15.26    2.55% probe
c         5.28    0.88% subsume
c         2.41    0.40% parse
c         0.03    0.01% lucky
c   =================================
c       597.93   99.60% solve
c 
c last line shows process time for solving
c (percentage relative to total process time)
c 
c --- [ statistics ] ---------------------------------------------------------
c 
c chronological:            268620        16.83 %  of conflicts
c conflicts:               1596130      2669.41    per second
c decisions:               4641588      7762.72    per second
c eliminated:                 6545         6.64 %  of all variables
c fixed:                      1600         1.62 %  of all variables
c learned:                 1580162        99.00 %  per conflict
c learned_lits:          214422213       100.00 %  learned literals
c minimized:                     0         0.00 %  learned literals
c shrunken:               84763342        39.53 %  learned literals
c minishrunken:            6280768         2.93 %  learned literals
c propagations:          497918090         0.83 M  per second
c reduced:                 1078777        67.59 %  per conflict
c rephased:                     56     28502.32    interval
c restarts:                  29169        54.72    interval
c stabilizing:                   5        42.73 %  of conflicts
c subsumed:                 431771         3.64 %  of all clauses
c strengthened:              16056         0.14 %  of all clauses
c vivified:                     76         0.00 %  of all clauses
c walked:                       18     88673.89    interval
c weakened:                 576952         3.04    average size
c 
c seconds are measured in process time for solving
c 
c --- [ resources ] ----------------------------------------------------------
c 
c total process time since initialization:       600.34    seconds
c total real time since initialization:          600.40    seconds
c maximum resident set size of process:          701.12    MB
c 
c --- [ shutting down ] ------------------------------------------------------
c 
c exit 0
